149799
26,57,16,55,6,50,71,80,46,33,48,59,56,2,11,42,1,43,21,18,4,65,35,25,47,3,62,38,40,51,49,53,45,44,12,36,17,64,82,77,68,24,41,14,29,10,39,73,31,81,74,27,7,52,58,67,30,23,20,70,72,63,0,9,28,13,79,61,69,75,66,19,8,76,22,54,60,5,78,34,37,15,32